(set-logic HORN)
(declare-fun k_32 (Int Int Int Int (Array Int Int)) Bool)
(declare-fun k_26 (Int Int Int Int (Array Int Int)) Bool)
(declare-fun k_35 (Int Int Int Int Int (Array Int Int)) Bool)
(declare-fun k_29 (Int Int Int Int Int (Array Int Int)) Bool)
(assert (forall ((GT_6W Int) (LT_6S Int) (VV_F1 Int) (EQ_6U Int) (cmp (Array Int Int)))
  (=> (and (= (select cmp EQ_6U) EQ_6U)
           (= (select cmp GT_6W) GT_6W)
           (= (select cmp LT_6S) LT_6S)
           true)
      (k_32 EQ_6U GT_6W LT_6S VV_F1 cmp))))
(assert (forall ((n Int)
         (LT_6S Int)
         (EQ_6U Int)
         (GT_6W Int)
         (VV_F2 Int)
         (cmp (Array Int Int)))
  (=> (and (not (< n VV_F2))
           (= (select cmp EQ_6U) EQ_6U)
           (= (select cmp GT_6W) GT_6W)
           (= (select cmp LT_6S) LT_6S)
           (k_35 EQ_6U GT_6W LT_6S VV_F2 n cmp)
           true)
      false)))
(assert (forall ((VV_F3 Int)
         (EQ_6U Int)
         (GT_6W Int)
         (LT_6S Int)
         (lq_anf__dbg Int)
         (n_ab7 Int)
         (cmp (Array Int Int)))
  (=> (and (k_32 EQ_6U GT_6W LT_6S n_ab7 cmp)
           (= (select cmp EQ_6U) EQ_6U)
           (= (select cmp GT_6W) GT_6W)
           (= (select cmp LT_6S) LT_6S)
           (= lq_anf__dbg 1)
           (= VV_F3 (+ n_ab7 lq_anf__dbg))
           true)
      (k_35 EQ_6U GT_6W LT_6S VV_F3 n_ab7 cmp))))
(assert (forall ((VV_F4 Int) (GT_6W Int) (LT_6S Int) (EQ_6U Int) (cmp (Array Int Int)))
  (=> (and (= (select cmp EQ_6U) EQ_6U)
           (= (select cmp GT_6W) GT_6W)
           (= (select cmp LT_6S) LT_6S)
           true)
      (k_26 EQ_6U GT_6W LT_6S VV_F4 cmp))))
(assert (forall ((EQ_6U Int)
         (GT_6W Int)
         (LT_6S Int)
         (i Int)
         (VV_F5 Int)
         (cmp (Array Int Int)))
  (=> (and (not (< i VV_F5))
           (= (select cmp EQ_6U) EQ_6U)
           (= (select cmp GT_6W) GT_6W)
           (= (select cmp LT_6S) LT_6S)
           (k_29 EQ_6U GT_6W LT_6S VV_F5 i cmp)
           true)
      false)))
(assert (forall ((EQ_6U Int)
         (GT_6W Int)
         (LT_6S Int)
         (VV_F6 Int)
         (n_ab6 Int)
         (lq_anf__dbf Int)
         (cmp (Array Int Int)))
  (=> (and (k_26 EQ_6U GT_6W LT_6S n_ab6 cmp)
           (= (select cmp EQ_6U) EQ_6U)
           (= (select cmp GT_6W) GT_6W)
           (= (select cmp LT_6S) LT_6S)
           (= lq_anf__dbf 1)
           (= VV_F6 (+ n_ab6 lq_anf__dbf))
           true)
      (k_29 EQ_6U GT_6W LT_6S VV_F6 n_ab6 cmp))))

(check-sat)
